67
Route #1: 1 12 25 35 
Route #2: 2 
Route #3: 3 23 37 
Route #4: 4 28 
Route #5: 5 
Route #6: 6 26 
Route #7: 7 29 
Route #8: 8 27 
Route #9: 9 33 
Route #10: 10 30 
Route #11: 11 31 
Route #12: 13 22 43 
Route #13: 14 32 44 
Route #14: 15 40 
Route #15: 16 34 
Route #16: 17 39 
Route #17: 18 45 
Route #18: 19 48 
Route #19: 20 36 49 56 
Route #20: 21 46 
Route #21: 24 63 
Route #22: 38 65 
Route #23: 41 54 69 
Route #24: 42 72 
Route #25: 47 70 
Route #26: 50 76 
Route #27: 51 75 
Route #28: 52 82 
Route #29: 53 66 
Route #30: 55 73 81 
Route #31: 57 86 
Route #32: 58 78 
Route #33: 59 99 
Route #34: 60 67 87 
Route #35: 61 88 
Route #36: 62 79 91 
Route #37: 64 98 
Route #38: 68 80 102 
Route #39: 71 
Route #40: 74 
Route #41: 77 94 105 
Route #42: 83 96 110 127 
Route #43: 84 107 
Route #44: 85 112 
Route #45: 89 113 
Route #46: 90 121 
Route #47: 92 123 
Route #48: 93 111 140 
Route #49: 95 97 114 136 
Route #50: 100 132 
Route #51: 101 130 
Route #52: 103 122 135 
Route #53: 104 116 134 146 
Route #54: 106 138 148 
Route #55: 108 129 142 
Route #56: 109 137 
Route #57: 115 144 
Route #58: 117 143 
Route #59: 118 145 
Route #60: 119 139 150 
Route #61: 120 
Route #62: 124 141 
Route #63: 125 147 
Route #64: 126 
Route #65: 128 149 
Route #66: 131 
Route #67: 133 
Cost 67.0
